45 
300 
19.1 24.3 0 0
18.2 24 0 -135
12.6 24.9 20 -28
14.4 28 -20 -62
16.9 28.1 20 -19
20.7 28.2 20 -13
12.5 26.6 20 -25
21.8 27.3 20 -15
12.5 22.6 -20 -118
22.5 17 -30 -94
19.9 15 30 -18
14.9 15.1 -30 -123
11.5 18.6 -30 -131
12.4 29.8 -30 -114
17.8 28.1 30 -10
9.1 29.8 40 -14
10 32.6 40 -28
13.9 33.1 40 -19
19.95 10.3 -40 -83
15.2 8 -40 -73
14.7 31.2 50 -16
7.4 36.5 50 -26
21 25.5 50 -11
18 25.3 -10 -64
19.5 24.7 10 -22
21.4 21.8 10 -17
16 21.4 10 -28
18.65 26.2 10 -19
17.9 28.9 -10 -119
14.3 19.9 -20 -68
17 19 -20 -87
10.8 21 -20 -137
15.7 23.7 10 -22
